Route #1: 4 30
Route #2: 48 47 21
Route #3: 1 43 41 42
Route #4: 22 28 33
Route #5: 2 6 51
Route #6: 17 12 40
Route #7: 32 44 3
Route #8: 16 23 49 24 18
Route #9: 50 25 9
Route #10: 39 31 10
Route #11: 38 11
Route #12: 14 53 7
Route #13: 35 19 54 13 15
Route #14: 20 37 36 5
Route #15: 29 45 27 52
Route #16: 8 46 34
Route #17: 26
Cost 989